<instance format="XCSP3" type="CSP">
  <variables>
    <var id="x0"> 2 5 13 </var>
    <var id="x1"> 2 5 9 14 </var>
    <var id="x2"> 3 9 11 13 </var>
    <var id="x3"> 2 5 9 </var>
    <var id="x4"> 3 9 13 </var>
    <var id="x5"> 11 14 15 </var>
    <var id="x6"> 14 15 </var>
    <var id="x7"> 2 9 13 14 </var>
    <var id="x8"> 1 5 8 16 17 </var>
    <var id="x9"> 1 8 16 17 </var>
    <var id="x10"> 5 11 12 16 17 </var>
    <var id="x11"> 11 16 17 </var>
    <var id="x12"> 5 14 16 17 </var>
    <var id="x13"> 1 11 12 16 </var>
    <var id="x14"> 1 5 16 </var>
    <var id="x15"> 14 16 17 </var>
    <var id="x16"> 0 1 4 5 </var>
    <var id="x17"> 1 5 17 </var>
    <var id="x18"> 0 4 5 17 </var>
    <var id="x19"> 1 8 10 17 </var>
    <var id="x20"> 4 5 8..10 17 </var>
    <var id="x21"> 1 9 10 </var>
    <var id="x22"> 0 8 10 </var>
    <var id="x23"> 9 17 </var>
    <var id="x24"> 9 16 </var>
    <var id="x25"> 11 12 </var>
    <var id="x26"> 4 6 7 9 11 16 </var>
    <var id="x27"> 4 16 </var>
    <var id="x28"> 4 7 11 12 16 </var>
    <var id="x29"> 4 9 10 </var>
    <var id="x30"> 6 9 16 </var>
    <var id="x31"> 4 7 10 12 </var>
    <var id="x32"> 0 4 15 16 </var>
    <var id="x33"> 8 10 15 </var>
    <var id="x34"> 4 12 16 </var>
    <var id="x35"> 0 8 9 </var>
    <var id="x36"> 9 10 16 </var>
    <var id="x37"> 0 8 9 15 16 </var>
    <var id="x38"> 0 8 10 12 15 </var>
    <var id="x39"> 0 4 8 10 12 15 </var>
    <var id="x40"> 1 4 7 </var>
    <var id="x41"> 1 15 </var>
    <var id="x42"> 4 6 7 9 </var>
    <var id="x43"> 4 8..10 </var>
    <var id="x44"> 6 8 9 </var>
    <var id="x45"> 1 6 9 10 </var>
    <var id="x46"> 4 7 8 10 15 </var>
    <var id="x47"> 6 9 </var>
    <var id="x48"> 1 11 </var>
    <var id="x49"> 1 2 4 11 13 </var>
    <var id="x50"> 2 4 5 9 </var>
    <var id="x51"> 1 2 5 9 </var>
    <var id="x52"> 1 9 13 </var>
    <var id="x53"> 0 9 13 </var>
    <var id="x54"> 9 13 </var>
    <var id="x55"> 2 4 9 13 </var>
    <var id="x56"> 5 8 13 16 </var>
    <var id="x57"> 5 13 16 </var>
    <var id="x58"> 5 6 10 16 </var>
    <var id="x59"> 5 </var>
    <var id="x60"> 3 6 8 13 </var>
    <var id="x61"> 6 8 13 16 </var>
    <var id="x62"> 8 10 </var>
    <var id="x63"> 1 8 </var>
    <var id="x64"> 1 6..8 </var>
    <var id="x65"> 1 12 14 </var>
    <var id="x66"> 3 4 6 7 </var>
    <var id="x67"> 1 3 6 8 </var>
    <var id="x68"> 4 8 14 </var>
    <var id="x69"> 1 6 7 </var>
    <var id="x70"> 3 6 14 </var>
    <var id="x71"> 5 7 13 </var>
    <var id="x72"> 5 6 17 </var>
    <var id="x73"> 6 7 17 </var>
    <var id="x74"> 5 14 15 17 </var>
    <var id="x75"> 6 8 13 17 </var>
    <var id="x76"> 6 13 </var>
    <var id="x77"> 8 14 15 </var>
    <var id="x78"> 8 13 14 </var>
    <var id="x79"> 9 10 16 17 </var>
    <var id="x80"> 10 11 16 17 </var>
    <var id="x81"> 15..17 </var>
    <var id="x82"> 2 11 13 16 </var>
    <var id="x83"> 2 9 10 16 </var>
    <var id="x84"> 9 13 15 16 </var>
    <var id="x85"> 10 11 15 </var>
    <var id="x86"> 2 9 13 </var>
    <var id="x87"> 1 7 </var>
    <var id="x88"> 6 8 9 </var>
    <var id="x89"> 1 6 7 9 </var>
    <var id="x90"> 1 6 9 12 </var>
    <var id="x91"> 6 8 9 14 </var>
    <var id="x92"> 7 8 12 14 </var>
    <var id="x93"> 8 9 12 14 </var>
    <var id="x94"> 6 10 16 17 </var>
    <var id="x95"> 2 4 13 16 </var>
    <var id="x96"> 2 17 </var>
    <var id="x97"> 3 6 10 17 </var>
    <var id="x98"> 2 6 10 16 </var>
    <var id="x99"> 3 6 10 13 16 </var>
    <var id="x100"> 4 10 </var>
    <var id="x101"> 3 6 13 16 17 </var>
    <var id="x102"> 2 9 13 16 17 </var>
    <var id="x103"> 10 16 17 </var>
    <var id="x104"> 2 14 17 </var>
    <var id="x105"> 2 13 16 </var>
    <var id="x106"> 2 9 10 14 17 </var>
    <var id="x107"> 9 13 14 16 </var>
    <var id="x108"> 9 13 14 16 17 </var>
    <var id="x109"> 1 5 9 16 17 </var>
    <var id="x110"> 1 9 16 17 </var>
    <var id="x111"> 9 11 16 17 </var>
    <var id="x112"> 1 11 15 17 </var>
    <var id="x113"> 1 9 16 </var>
    <var id="x114"> 0 11 15 </var>
    <var id="x115"> 0 15 </var>
    <var id="x116"> 9 </var>
    <var id="x117"> 2 8 16 17 </var>
    <var id="x118"> 6..8 16 17 </var>
    <var id="x119"> 6 12 16 17 </var>
    <var id="x120"> 2 12 17 </var>
    <var id="x121"> 3 16 17 </var>
    <var id="x122"> 3 6 8 17 </var>
    <var id="x123"> 7 8 12 </var>
    <var id="x124"> 2 8 12 </var>
    <var id="x125"> 2 13 16 17 </var>
    <var id="x126"> 6 16 17 </var>
    <var id="x127"> 0 2 13 16 </var>
    <var as="x119" id="x128"/>
    <var id="x129"> 6 16 17 </var>
    <var id="x130"> 2 12 13 16 </var>
    <var id="x131"> 0 6 13 17 </var>
    <var id="x132"> 0 6 13 14 16 </var>
    <var id="x133"> 1 16 17 </var>
    <var id="x134"> 4 11 16 17 </var>
    <var id="x135"> 3 4 11 16 17 </var>
    <var id="x136"> 0 3 4 14 16 17 </var>
    <var id="x137"> 1 3 11 17 </var>
    <var id="x138"> 1 4 11 16 </var>
    <var id="x139"> 4 14 17 </var>
    <var id="x140"> 0 3 11 17 </var>
  </variables>
  <constraints>
    <group>
      <allDifferent> %... </allDifferent>
      <args> x0 x1 x2 x3 x4 x5 x6 x7 </args>
      <args> x8 x9 x10 x11 x12 x13 x14 x15 </args>
      <args> x16 x17 x18 x19 x20 x21 x22 x23 </args>
      <args> x24 x25 x26 x27 x28 x29 x30 x31 </args>
      <args> x32 x33 x34 x35 x36 x37 x38 x39 </args>
      <args> x40 x41 x42 x43 x44 x45 x46 x47 </args>
      <args> x48 x49 x50 x51 x52 x53 x54 x55 </args>
      <args> x56 x57 x58 x59 x60 x61 x62 </args>
      <args> x63 x64 x65 x66 x67 x68 x69 x70 </args>
      <args> x71 x72 x73 x74 x75 x76 x77 x78 </args>
      <args> x79 x80 x81 x82 x83 x84 x85 x86 </args>
      <args> x87 x88 x89 x90 x91 x92 x93 </args>
      <args> x94 x95 x96 x97 x98 x99 x100 x101 </args>
      <args> x102 x103 x104 x105 x106 x107 x108 </args>
      <args> x109 x110 x111 x112 x113 x114 x115 x116 </args>
      <args> x117 x118 x119 x120 x121 x122 x123 x124 </args>
      <args> x125 x126 x127 x128 x129 x130 x131 x132 </args>
      <args> x133 x134 x135 x136 x137 x138 x139 x140 </args>
      <args> x8 x24 x56 x63 x102 x109 x117 x125 </args>
      <args> x9 x64 x79 x94 x110 x118 x126 x133 </args>
      <args> x0 x16 x40 x57 x71 x87 x95 x127 </args>
      <args> x10 x58 x72 x80 x103 x119 x128 x134 </args>
      <args> x17 x25 x41 x59 x65 x96 x104 x120 </args>
      <args> x11 x26 x42 x66 x73 x111 x129 x135 </args>
      <args> x12 x18 x27 x32 x74 x81 x121 x136 </args>
      <args> x19 x33 x48 x67 x97 x112 x122 x137 </args>
      <args> x13 x28 x34 x49 x82 x105 x130 x138 </args>
      <args> x1 x20 x29 x43 x50 x68 x106 x139 </args>
      <args> x2 x35 x44 x60 x75 x88 x131 x140 </args>
      <args> x3 x14 x36 x51 x69 x83 x89 x98 </args>
      <args> x4 x21 x45 x52 x76 x90 x99 x113 </args>
      <args> x30 x37 x53 x61 x84 x91 x107 x132 </args>
      <args> x5 x22 x38 x62 x77 x85 x114 </args>
      <args> x6 x31 x39 x46 x92 x100 x115 x123 </args>
      <args> x15 x23 x47 x54 x70 x101 x108 </args>
      <args> x7 x55 x78 x86 x93 x116 x124 </args>
    </group>
  </constraints>
</instance>

